c NeuroCodeBench 2.0 CNF formula with verdict Unsat
p cnf 34 68
-1 21 -30 27 29 0
1 26 -31 19 -20 -2 17 -14 -29 0
1 26 31 2 -20 33 28 0
-1 21 -30 -27 -9 20 0
1 26 -31 19 20 29 27 -21 0
-1 -21 -22 17 10 -5 -27 0
-1 21 30 -34 7 27 5 -22 0
1 -26 -23 -18 -33 -3 11 0
-1 -21 22 -3 0
1 26 31 -2 -3 12 0
-1 21 30 -34 -7 17 0
-1 21 -30 -27 9 -15 -12 -29 0
-1 21 -30 -27 9 -15 -12 29 0
-1 21 -30 -27 -9 -20 -28 0
1 -26 23 18 0
-1 21 30 -34 7 -27 0
-1 -21 -22 17 -10 -9 0
1 26 -31 19 -20 -2 17 -14 29 0
-1 21 -30 27 -29 15 -19 0
-1 21 30 -34 -7 -17 0
-1 -21 22 3 8 9 18 -33 -4 0
1 26 -31 19 -20 -2 17 14 6 -23 0
-1 21 -30 -27 9 -15 12 0
-1 -21 22 3 -8 -2 0
1 26 -31 19 20 29 27 21 0
-1 -21 -22 17 -10 9 0
-1 -21 22 3 8 -9 0
1 26 -31 19 20 -29 -18 0
-1 -21 22 3 8 9 18 33 0
1 -26 -23 18 20 0
1 26 -31 19 -20 2 0
-1 -21 -22 17 10 -5 27 0
1 -26 -23 -18 -33 -3 -11 0
1 26 31 2 -20 33 -28 0
1 -26 -23 18 -20 0
-1 -21 -22 -17 20 0
-1 21 -30 27 -29 -15 0
1 26 -31 -19 10 -3 0
1 26 -31 19 20 29 -27 0
-1 -21 -22 -17 -20 0
-1 21 30 -34 7 27 -5 0
1 26 -31 -19 10 3 0
1 26 -31 19 20 -29 18 0
1 26 -31 -19 -10 27 11 0
-1 -21 -22 17 10 5 0
1 26 31 2 20 0
-1 -21 22 3 8 9 18 -33 4 0
1 26 31 -2 -3 -12 17 0
-1 21 -30 -27 9 15 0
-1 21 30 -34 7 27 5 22 0
1 26 -31 19 -20 -2 17 14 -6 0
-1 -21 22 3 8 9 -18 0
-1 21 -30 27 -29 15 19 0
1 26 31 -2 -3 -12 -17 0
1 26 -31 19 -20 -2 -17 0
-1 21 -30 -27 -9 -20 28 0
1 26 31 -2 3 0
1 26 -31 -19 -10 -27 -15 0
1 -26 -23 -18 33 -9 0
1 26 -31 -19 -10 27 -11 0
1 26 -31 19 -20 -2 17 14 6 23 0
1 -26 -23 -18 -33 3 0
-1 21 30 34 0
1 -26 -23 -18 33 9 0
-1 -21 22 3 -8 2 0
1 26 -31 -19 -10 -27 15 0
1 -26 23 -18 0
1 26 31 2 -20 -33 0
